GeneratedTests/Random_8/Random_8_19.tsp
NAME: Random_8_19
TYPE: TSP
DIMENSION: 8
EDGE_WEIGHT_TYPE: EUC_2D
NODE_COORD_SECTION
1 12.678736 23.715185
2 19.61765 13.0787735
3 10.275042 13.661955
4 2.3753572 11.010113
5 3.799656 22.68591
6 9.8574295 20.731703
7 18.547768 8.386788
8 9.377258 20.13923
EOF
