GeneratedTests/Random_8/Random_8_19.txt
NAME: Random_8_19
TYPE: TSP
DIMENSION: 8
EDGE_WEIGHT_TYPE: EUC_2D
NODE_COORD_SECTION
1 0.23501587 10.918144
2 5.8845935 5.5897365
3 23.805439 12.220623
4 14.541525 16.826439
5 2.3294206 22.750412
6 15.937578 1.7841868
7 20.975002 9.177507
8 12.263704 23.15817
EOF
